162
0 150 11 120 125 38 32 129 121 26 
140 155 51 20 122 110 30 103 47 119 
7 108 4 70 107 17 15 85 55 80 
8 145 142 84 100 49 25 92 135 63 
72 77 22 29 116 105 50 82 139 36 
59 19 28 101 127 91 148 90 18 39 
27 95 46 132 131 57 24 53 94 115 
88 10 43 74 118 12 40 147 102 81 
89 48 161 152 109 61 56 123 160 3 
106 149 156 78 34 158 33 13 86 138 
16 144 126 159 41 99 130 62 54 97 
76 60 14 124 134 83 143 35 58 87 
1 21 6 42 79 66 52 98 45 128 
2 153 157 67 117 133 137 44 111 112 
64 5 71 37 136 93 31 146 151 73 
9 69 154 113 141 96 75 65 104 114 
23 68 
